WARNING: for repeatability, setting FPU to use double precision
============================[ Problem Statistics ]=============================
|                                                                             |
|  Number of variables:            50                                         |
|  Number of clauses:             218                                         |
|  Parse time:                   0.00 s                                       |
|                                                                             |
============================[ Search Statistics ]==============================
| Conflicts |          ORIGINAL         |          LEARNT          | Progress |
|           |    Vars  Clauses Literals |    Limit  Clauses Lit/Cl |          |
===============================================================================
===============================================================================
restarts              : 1
conflicts             : 62             (39315 /sec)
decisions             : 71             (0.00 % random) (45022 /sec)
propagations          : 1026           (650602 /sec)
conflict literals     : 230            (20.69 % deleted)
Memory used           : 20.00 MB
CPU time              : 0.001577 s

UNSATISFIABLE
